SQP/Cases/Case 14/case14.dat

set Buses :=     1     2     3     4     5     6     7     8     9    10    11    12    13    14;
set Lines :=   1   2   3   4   5   6   7   8   9  10  11  12  13  14  15  16  17  18  19  20;
set Generators :=   1   2   3   4   5;


# Generator data:

param Cost1 :=    1  430.293000000000010,   2 2500.000000000000000,   3  100.000000000000000,   4  100.000000000000000,   5  100.000000000000000;
param Cost2 :=    1 2000.000000000000000,   2 2000.000000000000000,   3 4000.000000000000000,   4 4000.000000000000000,   5 4000.000000000000000;
param Cost3 :=    1    0.000000000000000,   2    0.000000000000000,   3    0.000000000000000,   4    0.000000000000000,   5    0.000000000000000;
param RealPowerGenLimitLower :=    1    0.000000000000000,   2    0.000000000000000,   3    0.000000000000000,   4    0.000000000000000,   5    0.000000000000000;
param RealPowerGenLimitUpper :=    1    3.324000000000000,   2    1.400000000000000,   3    1.000000000000000,   4    1.000000000000000,   5    1.000000000000000;
param ReactivePowerGenLimitLower :=    1    0.000000000000000,   2   -0.400000000000000,   3    0.000000000000000,   4   -0.060000000000000,   5   -0.060000000000000;
param ReactivePowerGenLimitUpper :=    1    0.100000000000000,   2    0.500000000000000,   3    0.400000000000000,   4    0.240000000000000,   5    0.240000000000000;
param GenLocation :=    1            1,   2            2,   3            3,   4            6,   5            8;


# Bus data:

param SusceptanceOfReactivePower :=    1    0.000000000000000,   2    0.000000000000000,   3    0.000000000000000,   4    0.000000000000000,   5    0.000000000000000,   6    0.000000000000000,   7    0.000000000000000,   8    0.000000000000000,   9    0.190000000000000,  10    0.000000000000000,  11    0.000000000000000,  12    0.000000000000000,  13    0.000000000000000,  14    0.000000000000000;
param VoltageLimitLower :=    1    0.940000000000000,   2    0.940000000000000,   3    0.940000000000000,   4    0.940000000000000,   5    0.940000000000000,   6    0.940000000000000,   7    0.940000000000000,   8    0.940000000000000,   9    0.940000000000000,  10    0.940000000000000,  11    0.940000000000000,  12    0.940000000000000,  13    0.940000000000000,  14    0.940000000000000;
param VoltageLimitUpper :=    1    1.060000000000000,   2    1.060000000000000,   3    1.060000000000000,   4    1.060000000000000,   5    1.060000000000000,   6    1.060000000000000,   7    1.060000000000000,   8    1.060000000000000,   9    1.060000000000000,  10    1.060000000000000,  11    1.060000000000000,  12    1.060000000000000,  13    1.060000000000000,  14    1.060000000000000;
param RealPowerBusDemand :=    1    0.000000000000000,   2    0.217000000000000,   3    0.942000000000000,   4    0.478000000000000,   5    0.076000000000000,   6    0.112000000000000,   7    0.000000000000000,   8    0.000000000000000,   9    0.295000000000000,  10    0.090000000000000,  11    0.035000000000000,  12    0.061000000000000,  13    0.135000000000000,  14    0.149000000000000;
param ReactivePowerBusDemand :=    1    0.000000000000000,   2    0.127000000000000,   3    0.190000000000000,   4   -0.039000000000000,   5    0.016000000000000,   6    0.075000000000000,   7    0.000000000000000,   8    0.000000000000000,   9    0.166000000000000,  10    0.058000000000000,  11    0.018000000000000,  12    0.016000000000000,  13    0.058000000000000,  14    0.050000000000000;


# Line data:

param ThermalLineLimit :=    1   99.000000000000000,   2   99.000000000000000,   3   99.000000000000000,   4   99.000000000000000,   5   99.000000000000000,   6   99.000000000000000,   7   99.000000000000000,   8   99.000000000000000,   9   99.000000000000000,  10   99.000000000000000,  11   99.000000000000000,  12   99.000000000000000,  13   99.000000000000000,  14   99.000000000000000,  15   99.000000000000000,  16   99.000000000000000,  17   99.000000000000000,  18   99.000000000000000,  19   99.000000000000000,  20   99.000000000000000;
param LineConductance :=    1    4.999131600798035,   2    1.025897454970189,   3    1.135019192307396,   4    1.686033150614943,   5    1.701139667094405,   6    1.985975709925561,   7    6.840980661495671,   8    0.000000000000000,   9    0.000000000000000,  10    0.000000000000000,  11    1.955028563177261,  12    1.525967440450974,  13    3.098927403837987,  14    0.000000000000000,  15    0.000000000000000,  16    3.902049552447428,  17    1.424005487019931,  18    1.880884753700400,  19    2.489024586821919,  20    1.136994157806327;
param LineSusceptance :=    1  -15.263086523179551,   2   -4.234983682334831,   3   -4.781863151757718,   4   -5.115838325872082,   5   -5.193927397969713,   6   -5.068816977593921,   7  -21.578553981691588,   8   -4.781943381790359,   9   -1.797979071523608,  10   -3.967939052456154,  11   -4.094074344240442,  12   -3.175963965029400,  13   -6.102755448193115,  14   -5.676979846721544,  15   -9.090082719752749,  16  -10.365394127060915,  17   -3.029050456930603,  18   -4.402943749460521,  19   -2.251974626172212,  20   -2.314963475105352;
param ShuntSusceptance :=    1    0.052800000000000,   2    0.049200000000000,   3    0.043800000000000,   4    0.034000000000000,   5    0.034600000000000,   6    0.012800000000000,   7    0.000000000000000,   8    0.000000000000000,   9    0.000000000000000,  10    0.000000000000000,  11    0.000000000000000,  12    0.000000000000000,  13    0.000000000000000,  14    0.000000000000000,  15    0.000000000000000,  16    0.000000000000000,  17    0.000000000000000,  18    0.000000000000000,  19    0.000000000000000,  20    0.000000000000000;
param LineResistance :=    1    0.019380000000000,   2    0.054030000000000,   3    0.046990000000000,   4    0.058110000000000,   5    0.056950000000000,   6    0.067010000000000,   7    0.013350000000000,   8    0.000000000000000,   9    0.000000000000000,  10    0.000000000000000,  11    0.094980000000000,  12    0.122910000000000,  13    0.066150000000000,  14    0.000000000000000,  15    0.000000000000000,  16    0.031810000000000,  17    0.127110000000000,  18    0.082050000000000,  19    0.220920000000000,  20    0.170930000000000;
param FromBus :=    1            1,   2            1,   3            2,   4            2,   5            2,   6            3,   7            4,   8            4,   9            4,  10            5,  11            6,  12            6,  13            6,  14            7,  15            7,  16            9,  17            9,  18           10,  19           12,  20           13;
param ToBus :=    1            2,   2            5,   3            3,   4            4,   5            5,   6            4,   7            5,   8            7,   9            9,  10            6,  11           11,  12           12,  13           13,  14            8,  15            9,  16           10,  17           14,  18           11,  19           13,  20           14;
